 C  H  O 
 1.0000000000000000
    15.0000000000000000    0.0000000000000000    0.0000000000000000
     0.0000000000000000   15.0000000000000000    0.0000000000000000
     0.0000000000000000    0.0000000000000000   15.0000000000000000
 C   H   O  
   3   4   3
Cartesian
  6.1470290415874711  8.2429089574678240  7.6000299514503391
  6.1511360114201405  6.7588214327361840  7.4126946028521141
  8.2692874555828180  7.5016620886571239  7.5239805912774198
  5.7871605643585378  8.5360917917324599  8.5914325720290119
  5.5355916198344213  8.7487207618323843  6.8469163567379931
  5.8281548073400220  6.4660413144292033  6.4085674279709890
  5.5126524809341433  6.2512792381676165  8.1419393197368439
  7.5004006461507036  6.3789917557572533  7.5987719643286988
  9.4873475190658567  7.5010211361843480  7.5172189391875159
  7.5011924977106093  8.6253593698255315  7.4585926649930725
